NAME : local_6
TYPE : ATSP
DIMENSION : 22
EDGE_WEIGHT_TYPE : EXPLICIT
EDGE_WEIGHT_FORMAT : FULL_MATRIX
EDGE_WEIGHT_SECTION
0 932 10000000 892 10000000 10000000 10000000 657 1041 652 10000000 797 10000000 10000000 10000000 851 10000000 391 997 10000000 10000000 10000000 
0 0 481 760 1072 807 10000000 425 10000000 956 10000000 10000000 10000000 10000000 10000000 10000000 10000000 10000000 98 10000000 10000000 10000000 
0 481 0 10000000 10000000 421 10000000 462 10000000 821 10000000 10000000 642 10000000 10000000 982 10000000 10000000 551 10000000 10000000 10000000 
0 760 10000000 0 378 10000000 562 864 482 10000000 10000000 10000000 10000000 10000000 10000000 10000000 940 10000000 773 10000000 10000000 10000000 
0 1087 10000000 378 0 10000000 190 1083 230 10000000 839 10000000 10000000 10000000 10000000 10000000 633 10000000 10000000 10000000 10000000 10000000 
0 807 421 10000000 10000000 0 10000000 542 10000000 569 10000000 925 381 890 10000000 633 10000000 947 896 10000000 892 770 
0 10000000 10000000 562 190 10000000 0 10000000 235 10000000 756 10000000 10000000 892 861 10000000 474 10000000 10000000 852 10000000 10000000 
0 425 462 858 1260 542 10000000 0 10000000 531 10000000 932 886 10000000 10000000 770 10000000 694 521 10000000 10000000 10000000 
0 10000000 10000000 482 230 10000000 235 10000000 0 10000000 613 10000000 10000000 10000000 953 10000000 488 10000000 10000000 927 10000000 10000000 
0 956 821 10000000 10000000 569 10000000 531 10000000 0 10000000 415 893 10000000 10000000 270 10000000 402 10000000 10000000 858 660 
0 10000000 10000000 10000000 839 10000000 756 10000000 613 10000000 0 10000000 10000000 10000000 890 10000000 464 10000000 10000000 809 10000000 10000000 
0 10000000 10000000 10000000 10000000 925 10000000 932 10000000 415 10000000 0 10000000 10000000 10000000 314 10000000 444 10000000 10000000 800 610 
0 10000000 642 10000000 10000000 381 10000000 886 10000000 893 10000000 10000000 0 693 869 868 10000000 10000000 10000000 959 854 817 
0 10000000 10000000 10000000 10000000 890 892 10000000 10000000 10000000 10000000 10000000 693 0 244 989 627 10000000 10000000 292 548 650 
0 10000000 10000000 10000000 10000000 10000000 861 10000000 953 10000000 890 10000000 869 244 0 1045 517 10000000 10000000 197 585 698 
0 10000000 982 10000000 10000000 633 10000000 770 10000000 270 10000000 314 868 988 1069 0 10000000 565 10000000 10000000 613 409 
0 10000000 10000000 940 633 10000000 474 10000000 488 10000000 464 10000000 10000000 627 517 10000000 0 10000000 10000000 464 1004 1010 
0 10000000 10000000 10000000 10000000 947 10000000 694 10000000 402 10000000 444 10000000 10000000 10000000 565 10000000 0 10000000 10000000 10000000 943 
0 98 551 773 10000000 896 10000000 521 10000000 10000000 10000000 10000000 10000000 10000000 10000000 10000000 10000000 10000000 0 10000000 10000000 10000000 
0 10000000 10000000 10000000 10000000 10000000 852 10000000 927 10000000 809 10000000 959 292 197 10000000 464 10000000 10000000 0 611 722 
0 10000000 10000000 10000000 10000000 892 10000000 10000000 10000000 858 10000000 800 854 548 585 613 967 10000000 10000000 611 0 204 
0 10000000 10000000 10000000 10000000 10000000 10000000 10000000 10000000 10000000 10000000 10000000 10000000 10000000 10000000 10000000 10000000 10000000 10000000 10000000 10000000 0 
EOF